####################################################################### 
# 
# This file contains crystal structure data downloaded from the 
# Cambridge Structural Database (CSD) hosted by the Cambridge 
# Crystallographic Data Centre (CCDC).
# 
# Full information about CCDC data access policies and citation 
# guidelines are available at http://www.ccdc.cam.ac.uk/access/V1 
# 
# Audit and citation data items may have been added by the CCDC. 
# Please retain this information to preserve the provenance of 
# this file and to allow appropriate attribution of the data. 
# 
#######################################################################

data_CPO-27-Zn_pd06brefh
_audit_block_doi                 10.5517/ccpnfqg
_database_code_depnum_ccdc_archive 'CCDC 645256'
loop_
_citation_id
_citation_doi
_citation_year
1 10.1002/chem.200701370 2008
_audit_update_record             
;
2007-04-26 deposited with the CCDC.	2023-06-17 downloaded from the CCDC.
;

_audit_creation_method           SHELXL-97
_chemical_name_systematic        
;
catena-Diaquo-1,4-dicarboxylato-2,5-dihydroxidophenyl dizinc(II)
octahydrate
;
_chemical_name_common            ?
_chemical_melting_point          ?
_chemical_formula_moiety         'C4 H3 O4Zn, H2 O, 3(O)'
_chemical_formula_sum            'C4 H5 O8 Zn'
_chemical_formula_weight         246.45

loop_
_atom_type_symbol
_atom_type_description
_atom_type_scat_dispersion_real
_atom_type_scat_dispersion_imag
_atom_type_scat_source
C C 0.0033 0.0016 'International Tables Vol C Tables 4.2.6.8 and 6.1.1.4'
H H 0.0000 0.0000 'International Tables Vol C Tables 4.2.6.8 and 6.1.1.4'
O O 0.0106 0.0060 'International Tables Vol C Tables 4.2.6.8 and 6.1.1.4'
Zn Zn 0.2839 1.4301 'International Tables Vol C Tables 4.2.6.8 and 6.1.1.4'

_symmetry_cell_setting           trigonal
_symmetry_space_group_name_H-M   'R -3'
_symmetry_space_group_name_Hall  '-R 3'

loop_
_symmetry_equiv_pos_as_xyz
'x, y, z'
'-y, x-y, z'
'-x+y, -x, z'
'x+2/3, y+1/3, z+1/3'
'-y+2/3, x-y+1/3, z+1/3'
'-x+y+2/3, -x+1/3, z+1/3'
'x+1/3, y+2/3, z+2/3'
'-y+1/3, x-y+2/3, z+2/3'
'-x+y+1/3, -x+2/3, z+2/3'
'-x, -y, -z'
'y, -x+y, -z'
'x-y, x, -z'
'-x+2/3, -y+1/3, -z+1/3'
'y+2/3, -x+y+1/3, -z+1/3'
'x-y+2/3, x+1/3, -z+1/3'
'-x+1/3, -y+2/3, -z+2/3'
'y+1/3, -x+y+2/3, -z+2/3'
'x-y+1/3, x+2/3, -z+2/3'

_cell_length_a                   26.259(3)
_cell_length_b                   26.259(3)
_cell_length_c                   6.6693(15)
_cell_angle_alpha                90.00
_cell_angle_beta                 90.00
_cell_angle_gamma                120.00
_cell_volume                     3982.6(11)
_cell_formula_units_Z            18
_cell_measurement_temperature    295(2)
_cell_measurement_reflns_used    1750
_cell_measurement_theta_min      2.687
_cell_measurement_theta_max      23.086

_exptl_crystal_description       needle
_exptl_crystal_colour            'light yellow'
_exptl_crystal_size_max          0.12
_exptl_crystal_size_mid          0.02
_exptl_crystal_size_min          0.02
_exptl_crystal_density_meas      ?
_exptl_crystal_density_diffrn    1.850
_exptl_crystal_density_method    'not measured'
_exptl_crystal_F_000             2214
_exptl_absorpt_coefficient_mu    2.788
_exptl_absorpt_correction_type   multi-scan
_exptl_absorpt_correction_T_min  0.631
_exptl_absorpt_correction_T_max  0.9463
_exptl_absorpt_process_details   
'Blessing, R. H. (1995) Acta Cryst. A51, 33-38.'
_exptl_special_details           
;
?
;

_diffrn_ambient_temperature      295(2)
_diffrn_radiation_wavelength     0.71073
_diffrn_radiation_type           MoK\a
_diffrn_radiation_source         'fine-focus sealed tube'
_diffrn_radiation_monochromator  graphite
_diffrn_measurement_device_type  'Bruker Smart APEX2 on goniometer platform'
_diffrn_measurement_method       'omega scan'
_diffrn_detector_area_resol_mean ?
_diffrn_standards_number         0
_diffrn_standards_interval_count 0
_diffrn_standards_interval_time  0
_diffrn_standards_decay_%        0
_diffrn_reflns_number            11573
_diffrn_reflns_av_R_equivalents  0.0611
_diffrn_reflns_av_sigmaI/netI    0.0528
_diffrn_reflns_limit_h_min       -33
_diffrn_reflns_limit_h_max       34
_diffrn_reflns_limit_k_min       -33
_diffrn_reflns_limit_k_max       33
_diffrn_reflns_limit_l_min       -8
_diffrn_reflns_limit_l_max       8
_diffrn_reflns_theta_min         1.55
_diffrn_reflns_theta_max         27.49
_reflns_number_total             2032
_reflns_number_gt                1441
_reflns_threshold_expression     >2sigma(I)

_computing_data_collection       'Apex2 (Bruker, 2004)'
_computing_cell_refinement       'SAINT (Bruker, 2003)'
_computing_data_reduction        'SAINT (Bruker, 2003)'
_computing_structure_solution    'SHELXS-97 (Sheldrick, 1990)'
_computing_structure_refinement  'SHELXL-97 (Sheldrick, 1997)'
_computing_molecular_graphics    ?
_computing_publication_material  ?

_refine_special_details          
;
Refinement of F^2^ against ALL reflections. The weighted R-factor wR and
goodness of fit S are based on F^2^, conventional R-factors R are based
on F, with F set to zero for negative F^2^. The threshold expression of
F^2^ > 2sigma(F^2^) is used only for calculating R-factors(gt) etc. and is
not relevant to the choice of reflections for refinement. R-factors based
on F^2^ are statistically about twice as large as those based on F, and R-
factors based on ALL data will be even larger.
;

_refine_ls_structure_factor_coef Fsqd
_refine_ls_matrix_type           full
_refine_ls_weighting_scheme      calc
_refine_ls_weighting_details     
'calc w=1/[\s^2^(Fo^2^)+(0.0690P)^2^+0.0000P] where P=(Fo^2^+2Fc^2^)/3'
_atom_sites_solution_primary     direct
_atom_sites_solution_secondary   difmap
_atom_sites_solution_hydrogens   difmap
_refine_ls_hydrogen_treatment    refall
_refine_ls_extinction_method     none
_refine_ls_extinction_coef       ?
_refine_ls_number_reflns         2032
_refine_ls_number_parameters     94
_refine_ls_number_restraints     4
_refine_ls_R_factor_all          0.0712
_refine_ls_R_factor_gt           0.0405
_refine_ls_wR_factor_ref         0.1167
_refine_ls_wR_factor_gt          0.1055
_refine_ls_goodness_of_fit_ref   1.030
_refine_ls_restrained_S_all      1.029
_refine_ls_shift/su_max          0.001
_refine_ls_shift/su_mean         0.000

loop_
_atom_site_label
_atom_site_type_symbol
_atom_site_fract_x
_atom_site_fract_y
_atom_site_fract_z
_atom_site_U_iso_or_equiv
_atom_site_adp_type
_atom_site_occupancy
_atom_site_symmetry_multiplicity
_atom_site_calc_flag
_atom_site_refinement_flags
_atom_site_disorder_assembly
_atom_site_disorder_group
Zn1 Zn 0.650552(18) 0.612106(19) 0.65507(6) 0.02107(17) Uani 1 1 d . . .
C1 C 0.75439(15) 0.68407(15) 0.9282(5) 0.0179(7) Uani 1 1 d . . .
C2 C 0.45293(15) 0.45952(15) 0.8788(5) 0.0181(7) Uani 1 1 d . . .
C3 C 0.49720(16) 0.51369(16) 0.8037(5) 0.0223(8) Uani 1 1 d . . .
C4 C 0.54341(15) 0.55452(15) 0.9178(5) 0.0191(8) Uani 1 1 d . . .
O1 O 0.59659(11) 0.55953(11) 0.4335(3) 0.0251(6) Uani 1 1 d . . .
O2 O 0.70467(11) 0.67416(12) 0.8693(4) 0.0230(6) Uani 1 1 d . . .
O3 O 0.58319(10) 0.60655(10) 0.8290(3) 0.0203(6) Uani 1 1 d . . .
O4 O 0.65782(17) 0.54430(16) 0.8006(5) 0.0414(8) Uani 1 1 d D . .
H3 H 0.4961(15) 0.5230(15) 0.656(5) 0.016(9) Uiso 1 1 d . . .
H4A H 0.629(2) 0.5122(16) 0.801(11) 0.11(3) Uiso 1 1 d D . .
H4B H 0.670(2) 0.549(2) 0.917(4) 0.060(18) Uiso 1 1 d D . .
O5 O 0.6980 0.5510 0.1939 0.069 Uani 1 1 d D . .
H5A H 0.7090 0.5819 0.2582 0.048 Uiso 1 1 d D . .
H5B H 0.6689 0.5203 0.2356 0.123 Uiso 1 1 d D . .
O6 O 0.7518 0.5145 0.7486 0.348 Uani 1.25 1 d P . .
O7 O 0.7777 0.5088 0.2605 0.272 Uani 1.25 1 d P . .
O8 O 0.6927 0.3977 0.0588 1.297 Uani 1.25 1 d P . .

loop_
_atom_site_aniso_label
_atom_site_aniso_U_11
_atom_site_aniso_U_22
_atom_site_aniso_U_33
_atom_site_aniso_U_23
_atom_site_aniso_U_13
_atom_site_aniso_U_12
Zn1 0.0188(3) 0.0241(3) 0.0166(2) -0.00229(17) -0.00065(17) 0.0079(2)
C1 0.0191(18) 0.0200(18) 0.0143(16) 0.0026(14) 0.0013(14) 0.0095(15)
C2 0.0170(17) 0.0177(18) 0.0165(17) -0.0004(14) -0.0015(14) 0.0065(15)
C3 0.024(2) 0.0223(19) 0.0159(17) 0.0018(15) 0.0015(15) 0.0077(16)
C4 0.0193(18) 0.0200(18) 0.0151(17) 0.0023(14) 0.0015(14) 0.0076(15)
O1 0.0252(14) 0.0230(14) 0.0159(12) 0.0024(10) -0.0058(11) 0.0036(12)
O2 0.0197(13) 0.0319(15) 0.0196(12) -0.0069(11) -0.0028(11) 0.0145(12)
O3 0.0186(13) 0.0171(13) 0.0167(12) 0.0032(10) 0.0010(10) 0.0025(10)
O4 0.051(2) 0.038(2) 0.039(2) 0.0028(16) -0.0044(17) 0.0250(18)
O5 0.079 0.067 0.074 -0.027 -0.021 0.045
O6 0.269 0.256 0.596 0.155 0.195 0.189
O7 0.137 0.205 0.476 -0.123 -0.053 0.087
O8 1.559 0.705 1.798 -0.035 0.215 0.693

_geom_special_details            
;
All esds (except the esd in the dihedral angle between two l.s. planes)
are estimated using the full covariance matrix. The cell esds are taken
into account individually in the estimation of esds in distances, angles
and torsion angles; correlations between esds in cell parameters are only
used when they are defined by crystal symmetry. An approximate
(isotropic)
treatment of cell esds is used for estimating esds involving l.s. planes.
;

loop_
_geom_bond_atom_site_label_1
_geom_bond_atom_site_label_2
_geom_bond_distance
_geom_bond_site_symmetry_2
_geom_bond_publ_flag
Zn1 O1 2.035(2) . ?
Zn1 O3 2.042(2) 8_654 ?
Zn1 O3 2.058(2) . ?
Zn1 O2 2.098(2) . ?
Zn1 O4 2.119(3) . ?
Zn1 O2 2.273(2) 8_654 ?
Zn1 Zn1 3.1335(7) 8_654 ?
Zn1 Zn1 3.1335(7) 6_565 ?
C1 O1 1.257(4) 8_655 ?
C1 O2 1.260(4) . ?
C1 C2 1.505(5) 17_556 ?
C2 C3 1.404(5) . ?
C2 C4 1.422(4) 10_667 ?
C2 C1 1.505(5) 18_546 ?
C3 C4 1.378(5) . ?
C3 H3 1.02(3) . ?
C4 O3 1.372(4) . ?
C4 C2 1.422(4) 10_667 ?
O1 C1 1.257(4) 6_564 ?
O2 Zn1 2.273(2) 6_565 ?
O3 Zn1 2.042(2) 6_565 ?
O4 H4A 0.80(2) . ?
O4 H4B 0.825(19) . ?
O5 H5A 0.8316 . ?
O5 H5B 0.8333 . ?

loop_
_geom_angle_atom_site_label_1
_geom_angle_atom_site_label_2
_geom_angle_atom_site_label_3
_geom_angle
_geom_angle_site_symmetry_1
_geom_angle_site_symmetry_3
_geom_angle_publ_flag
O1 Zn1 O3 96.01(10) . 8_654 ?
O1 Zn1 O3 94.53(10) . . ?
O3 Zn1 O3 163.17(8) 8_654 . ?
O1 Zn1 O2 173.24(10) . . ?
O3 Zn1 O2 84.00(9) 8_654 . ?
O3 Zn1 O2 84.01(9) . . ?
O1 Zn1 O4 95.00(13) . . ?
O3 Zn1 O4 95.37(13) 8_654 . ?
O3 Zn1 O4 96.75(12) . . ?
O2 Zn1 O4 91.72(13) . . ?
O1 Zn1 O2 96.11(10) . 8_654 ?
O3 Zn1 O2 80.08(10) 8_654 8_654 ?
O3 Zn1 O2 85.78(9) . 8_654 ?
O2 Zn1 O2 77.22(3) . 8_654 ?
O4 Zn1 O2 168.37(13) . 8_654 ?
O1 Zn1 Zn1 87.35(7) . 8_654 ?
O3 Zn1 Zn1 40.36(7) 8_654 8_654 ?
O3 Zn1 Zn1 127.46(7) . 8_654 ?
O2 Zn1 Zn1 88.32(8) . 8_654 ?
O4 Zn1 Zn1 135.47(10) . 8_654 ?
O2 Zn1 Zn1 42.01(6) 8_654 8_654 ?
O1 Zn1 Zn1 130.09(8) . 6_565 ?
O3 Zn1 Zn1 124.61(7) 8_654 6_565 ?
O3 Zn1 Zn1 39.96(7) . 6_565 ?
O2 Zn1 Zn1 46.48(7) . 6_565 ?
O4 Zn1 Zn1 107.15(10) . 6_565 ?
O2 Zn1 Zn1 67.79(6) 8_654 6_565 ?
Zn1 Zn1 Zn1 104.778(19) 8_654 6_565 ?
O1 C1 O2 122.4(3) 8_655 . ?
O1 C1 C2 118.2(3) 8_655 17_556 ?
O2 C1 C2 119.4(3) . 17_556 ?
C3 C2 C4 118.3(3) . 10_667 ?
C3 C2 C1 117.2(3) . 18_546 ?
C4 C2 C1 124.5(3) 10_667 18_546 ?
C4 C3 C2 123.5(3) . . ?
C4 C3 H3 117.8(19) . . ?
C2 C3 H3 118.6(19) . . ?
O3 C4 C3 118.2(3) . . ?
O3 C4 C2 123.6(3) . 10_667 ?
C3 C4 C2 118.2(3) . 10_667 ?
C1 O1 Zn1 122.0(2) 6_564 . ?
C1 O2 Zn1 127.0(2) . . ?
C1 O2 Zn1 138.3(2) . 6_565 ?
Zn1 O2 Zn1 91.51(9) . 6_565 ?
C4 O3 Zn1 122.1(2) . 6_565 ?
C4 O3 Zn1 120.9(2) . . ?
Zn1 O3 Zn1 99.68(10) 6_565 . ?
Zn1 O4 H4A 117(5) . . ?
Zn1 O4 H4B 119(4) . . ?
H4A O4 H4B 105(6) . . ?
H5A O5 H5B 118.4 . . ?

_diffrn_measured_fraction_theta_max 0.999
_diffrn_reflns_theta_full        27.49
_diffrn_measured_fraction_theta_full 0.999
_refine_diff_density_max         1.029
_refine_diff_density_min         -0.586
_refine_diff_density_rms         0.118
