####################################################################### 
# 
# This file contains crystal structure data downloaded from the 
# Cambridge Structural Database (CSD) hosted by the Cambridge 
# Crystallographic Data Centre (CCDC).
# 
# Full information about CCDC data access policies and citation 
# guidelines are available at http://www.ccdc.cam.ac.uk/access/V1 
# 
# Audit and citation data items may have been added by the CCDC. 
# Please retain this information to preserve the provenance of 
# this file and to allow appropriate attribution of the data. 
# 
#######################################################################

data_dia(Zn)
_audit_block_doi                 10.5517/ccv9n3w
_database_code_depnum_ccdc_archive 'CCDC 783838'
loop_
_citation_id
_citation_doi
_citation_year
1 10.1002/anie.201004937 2011
#Added by publCIF



_audit_update_record             
;
2010-07-10 deposited with the CCDC.	2023-06-21 downloaded from the CCDC.
;
#TrackingRef 'dia(Zn).cif'



_cell_special_details            ?

_audit_creation_method           SHELXL-97
_chemical_name_systematic        
;
?
;
_chemical_name_common            ?
_chemical_melting_point          ?
_chemical_formula_moiety         ?
_chemical_formula_sum            'C16 H20 N8 Zn2'
_chemical_formula_weight         455.14

loop_
_atom_type_symbol
_atom_type_description
_atom_type_scat_dispersion_real
_atom_type_scat_dispersion_imag
_atom_type_scat_source
C C 0.0033 0.0016 'International Tables Vol C Tables 4.2.6.8 and 6.1.1.4'
H H 0.0000 0.0000 'International Tables Vol C Tables 4.2.6.8 and 6.1.1.4'
N N 0.0061 0.0033 'International Tables Vol C Tables 4.2.6.8 and 6.1.1.4'
Zn Zn 0.2839 1.4301 'International Tables Vol C Tables 4.2.6.8 and 6.1.1.4'

_symmetry_cell_setting           Monoclinic
_symmetry_space_group_name_H-M   P2(1)/c

loop_
_symmetry_equiv_pos_as_xyz
'x, y, z'
'-x, y+1/2, -z+1/2'
'-x, -y, -z'
'x, -y-1/2, z-1/2'

_cell_length_a                   17.5545(18)
_cell_length_b                   7.7307(7)
_cell_length_c                   14.80360(15)
_cell_angle_alpha                90.00
_cell_angle_beta                 107.4720(10)
_cell_angle_gamma                90.00
_cell_volume                     1916.3(3)
_cell_formula_units_Z            4
_cell_measurement_temperature    298(2)
_cell_measurement_reflns_used    3145
_cell_measurement_theta_min      2.885
_cell_measurement_theta_max      27.533

_exptl_crystal_description       ?
_exptl_crystal_colour            ?
_exptl_crystal_size_max          0.18
_exptl_crystal_size_mid          0.13
_exptl_crystal_size_min          0.08
_exptl_crystal_density_meas      ?
_exptl_crystal_density_diffrn    1.578
_exptl_crystal_density_method    'not measured'
_exptl_crystal_F_000             928
_exptl_absorpt_coefficient_mu    2.520
_exptl_absorpt_correction_type   multi-scan
_exptl_absorpt_correction_T_min  0.6598
_exptl_absorpt_correction_T_max  0.8238
_exptl_absorpt_process_details   sadabs

_exptl_special_details           
;
?
;

_diffrn_ambient_temperature      298(2)
_diffrn_radiation_wavelength     0.71073
_diffrn_radiation_type           MoK\a
_diffrn_radiation_source         'fine-focus sealed tube'
_diffrn_radiation_monochromator  graphite
_diffrn_measurement_device_type  'CCD area detector'
_diffrn_measurement_method       'phi and omega scans'
_diffrn_detector_area_resol_mean ?
_diffrn_standards_number         ?
_diffrn_standards_interval_count ?
_diffrn_standards_interval_time  ?
_diffrn_standards_decay_%        ?
_diffrn_reflns_number            9744
_diffrn_reflns_av_R_equivalents  0.0467
_diffrn_reflns_av_sigmaI/netI    0.0541
_diffrn_reflns_limit_h_min       -20
_diffrn_reflns_limit_h_max       20
_diffrn_reflns_limit_k_min       -7
_diffrn_reflns_limit_k_max       9
_diffrn_reflns_limit_l_min       -13
_diffrn_reflns_limit_l_max       17
_diffrn_reflns_theta_min         1.22
_diffrn_reflns_theta_max         25.01
_reflns_number_total             3376
_reflns_number_gt                2483
_reflns_threshold_expression     >2sigma(I)

_computing_data_collection       'Bruker SMART'
_computing_cell_refinement       'Bruker SMART'
_computing_data_reduction        'Bruker SHELXTL'
_computing_structure_solution    'SHELXS-97 (Sheldrick, 1990)'
_computing_structure_refinement  'SHELXL-97 (Sheldrick, 1997)'
_computing_molecular_graphics    'Bruker SHELXTL'
_computing_publication_material  'Bruker SHELXTL'

_refine_special_details          
;
Refinement of F^2^ against ALL reflections. The weighted R-factor wR and
goodness of fit S are based on F^2^, conventional R-factors R are based
on F, with F set to zero for negative F^2^. The threshold expression of
F^2^ > 2sigma(F^2^) is used only for calculating R-factors(gt) etc. and is
not relevant to the choice of reflections for refinement. R-factors based
on F^2^ are statistically about twice as large as those based on F, and R-
factors based on ALL data will be even larger.
;

_refine_ls_structure_factor_coef Fsqd
_refine_ls_matrix_type           full
_refine_ls_weighting_scheme      calc
_refine_ls_weighting_details     
'calc w=1/[\s^2^(Fo^2^)+(0.0173P)^2^+0.0000P] where P=(Fo^2^+2Fc^2^)/3'
_atom_sites_solution_primary     direct
_atom_sites_solution_secondary   difmap
_atom_sites_solution_hydrogens   geom
_refine_ls_hydrogen_treatment    mixed
_refine_ls_extinction_method     none
_refine_ls_extinction_coef       ?
_refine_ls_number_reflns         3376
_refine_ls_number_parameters     235
_refine_ls_number_restraints     0
_refine_ls_R_factor_all          0.0537
_refine_ls_R_factor_gt           0.0321
_refine_ls_wR_factor_ref         0.0596
_refine_ls_wR_factor_gt          0.0563
_refine_ls_goodness_of_fit_ref   1.045
_refine_ls_restrained_S_all      1.045
_refine_ls_shift/su_max          0.001
_refine_ls_shift/su_mean         0.000

loop_
_atom_site_label
_atom_site_type_symbol
_atom_site_fract_x
_atom_site_fract_y
_atom_site_fract_z
_atom_site_U_iso_or_equiv
_atom_site_adp_type
_atom_site_occupancy
_atom_site_symmetry_multiplicity
_atom_site_calc_flag
_atom_site_refinement_flags
_atom_site_disorder_assembly
_atom_site_disorder_group
Zn1 Zn 0.37116(2) 0.93608(5) 0.16636(3) 0.03192(12) Uani 1 1 d . . .
Zn2 Zn 0.12756(2) 0.52019(4) 0.28993(3) 0.02945(12) Uani 1 1 d . . .
N1 N 0.27955(15) 0.8476(3) 0.20585(19) 0.0339(7) Uani 1 1 d . . .
N2 N 0.17720(15) 0.6990(3) 0.2277(2) 0.0338(7) Uani 1 1 d . . .
N3 N 0.31661(15) 1.0302(3) 0.03789(19) 0.0340(7) Uani 1 1 d . . .
N4 N 0.21482(15) 1.0496(3) -0.09537(19) 0.0332(7) Uani 1 1 d . . .
N5 N 0.42960(15) 1.1226(3) 0.2546(2) 0.0355(7) Uani 1 1 d . . .
N6 N 0.54083(15) 1.2697(3) 0.32616(19) 0.0349(7) Uani 1 1 d . . .
N7 N 0.07331(15) 0.3122(3) 0.2175(2) 0.0317(7) Uani 1 1 d . . .
N8 N -0.03463(15) 0.1438(3) 0.18421(19) 0.0300(6) Uani 1 1 d . . .
C1 C 0.25014(19) 0.6916(4) 0.2166(2) 0.0317(8) Uani 1 1 d . . .
C2 C 0.1591(2) 0.8750(4) 0.2240(2) 0.0398(9) Uani 1 1 d . . .
H2 H 0.1123 0.9234 0.2300 0.048 Uiso 1 1 calc R . .
C3 C 0.22032(19) 0.9619(4) 0.2104(3) 0.0419(9) Uani 1 1 d . . .
H3 H 0.2228 1.0814 0.2047 0.050 Uiso 1 1 calc R . .
C4 C 0.2922(2) 0.5254(4) 0.2146(3) 0.0522(11) Uani 1 1 d . . .
H4A H 0.3125 0.4806 0.2778 0.078 Uiso 1 1 calc R . .
H4B H 0.3357 0.5445 0.1889 0.078 Uiso 1 1 calc R . .
H4C H 0.2556 0.4437 0.1757 0.078 Uiso 1 1 calc R . .
C5 C 0.26189(19) 0.9448(4) -0.0294(2) 0.0363(9) Uani 1 1 d . . .
C6 C 0.24306(19) 1.2137(4) -0.0673(3) 0.0363(9) Uani 1 1 d . . .
H6 H 0.2232 1.3159 -0.0986 0.044 Uiso 1 1 calc R . .
C7 C 0.30369(19) 1.2009(4) 0.0125(2) 0.0381(9) Uani 1 1 d . . .
H7 H 0.3327 1.2936 0.0457 0.046 Uiso 1 1 calc R . .
C8 C 0.2539(2) 0.7501(4) -0.0307(3) 0.0631(12) Uani 1 1 d . . .
H8A H 0.2078 0.7185 -0.0123 0.095 Uiso 1 1 calc R . .
H8B H 0.3008 0.7003 0.0127 0.095 Uiso 1 1 calc R . .
H8C H 0.2480 0.7079 -0.0935 0.095 Uiso 1 1 calc R . .
C9 C 0.49535(19) 1.1983(4) 0.2456(2) 0.0328(8) Uani 1 1 d . . .
C10 C 0.5012(2) 1.2374(4) 0.3917(3) 0.0452(10) Uani 1 1 d . . .
H10 H 0.5180 1.2704 0.4551 0.054 Uiso 1 1 calc R . .
C11 C 0.4330(2) 1.1489(4) 0.3478(3) 0.0425(9) Uani 1 1 d . . .
H11 H 0.3951 1.1124 0.3760 0.051 Uiso 1 1 calc R . .
C12 C 0.5146(2) 1.2061(5) 0.1539(2) 0.0527(11) Uani 1 1 d . . .
H12A H 0.5710 1.2226 0.1662 0.079 Uiso 1 1 calc R . .
H12B H 0.4863 1.3008 0.1167 0.079 Uiso 1 1 calc R . .
H12C H 0.4988 1.0998 0.1198 0.079 Uiso 1 1 calc R . .
C13 C 0.02325(18) 0.2211(4) 0.2516(2) 0.0272(8) Uani 1 1 d . . .
C14 C -0.0198(2) 0.1873(4) 0.1006(3) 0.0383(9) Uani 1 1 d . . .
H14 H -0.0498 0.1520 0.0404 0.046 Uiso 1 1 calc R . .
C15 C 0.0453(2) 0.2896(4) 0.1209(3) 0.0370(9) Uani 1 1 d . . .
H15 H 0.0676 0.3370 0.0769 0.044 Uiso 1 1 calc R . .
C16 C 0.03388(19) 0.2002(4) 0.3547(2) 0.0403(9) Uani 1 1 d . . .
H16A H -0.0172 0.1815 0.3643 0.060 Uiso 1 1 calc R . .
H16B H 0.0578 0.3028 0.3877 0.060 Uiso 1 1 calc R . .
H16C H 0.0679 0.1028 0.3785 0.060 Uiso 1 1 calc R . .

loop_
_atom_site_aniso_label
_atom_site_aniso_U_11
_atom_site_aniso_U_22
_atom_site_aniso_U_33
_atom_site_aniso_U_23
_atom_site_aniso_U_13
_atom_site_aniso_U_12
Zn1 0.0225(2) 0.0362(2) 0.0336(3) 0.00418(18) 0.00319(18) -0.00127(17)
Zn2 0.0225(2) 0.0287(2) 0.0338(3) 0.00176(17) 0.00357(17) -0.00107(16)
N1 0.0267(16) 0.0270(16) 0.048(2) 0.0051(13) 0.0114(15) -0.0001(13)
N2 0.0279(16) 0.0282(16) 0.047(2) 0.0050(13) 0.0134(15) -0.0002(12)
N3 0.0319(16) 0.0316(16) 0.0318(17) 0.0042(13) -0.0004(14) -0.0050(13)
N4 0.0290(15) 0.0262(16) 0.0377(18) 0.0016(13) -0.0003(14) 0.0002(12)
N5 0.0272(16) 0.0423(17) 0.039(2) -0.0029(14) 0.0130(15) -0.0068(13)
N6 0.0296(16) 0.0465(18) 0.0271(18) -0.0073(14) 0.0062(15) -0.0097(13)
N7 0.0294(16) 0.0301(16) 0.0376(19) -0.0022(13) 0.0130(15) -0.0045(12)
N8 0.0277(15) 0.0288(15) 0.0316(18) -0.0015(12) 0.0064(14) -0.0022(12)
C1 0.0307(19) 0.028(2) 0.037(2) -0.0002(16) 0.0109(17) 0.0004(16)
C2 0.033(2) 0.032(2) 0.058(3) 0.0086(17) 0.019(2) 0.0083(16)
C3 0.036(2) 0.026(2) 0.065(3) 0.0044(18) 0.0170(19) 0.0017(17)
C4 0.047(2) 0.036(2) 0.083(3) 0.005(2) 0.034(2) 0.0073(18)
C5 0.037(2) 0.029(2) 0.039(2) 0.0008(16) 0.0057(18) -0.0013(16)
C6 0.032(2) 0.0267(19) 0.043(2) 0.0040(16) 0.0010(18) -0.0004(15)
C7 0.034(2) 0.031(2) 0.042(2) -0.0011(17) 0.0012(18) -0.0077(16)
C8 0.083(3) 0.032(2) 0.056(3) 0.0016(19) -0.008(2) -0.003(2)
C9 0.0255(18) 0.043(2) 0.030(2) -0.0015(16) 0.0083(16) -0.0050(16)
C10 0.049(2) 0.057(3) 0.032(2) -0.0104(19) 0.016(2) -0.0111(19)
C11 0.046(2) 0.050(2) 0.042(3) -0.0020(19) 0.028(2) -0.0091(19)
C12 0.050(3) 0.069(3) 0.042(3) -0.011(2) 0.019(2) -0.023(2)
C13 0.0248(18) 0.0268(18) 0.029(2) 0.0007(15) 0.0064(17) 0.0024(14)
C14 0.041(2) 0.041(2) 0.030(2) -0.0064(16) 0.0051(18) -0.0060(17)
C15 0.045(2) 0.036(2) 0.036(2) -0.0017(17) 0.0210(19) -0.0059(17)
C16 0.034(2) 0.044(2) 0.040(2) 0.0013(17) 0.0059(18) -0.0092(17)

_geom_special_details            
;
All esds (except the esd in the dihedral angle between two l.s. planes)
are estimated using the full covariance matrix. The cell esds are taken
into account individually in the estimation of esds in distances, angles
and torsion angles; correlations between esds in cell parameters are only
used when they are defined by crystal symmetry. An approximate (isotropic)
treatment of cell esds is used for estimating esds involving l.s. planes.
;

loop_
_geom_bond_atom_site_label_1
_geom_bond_atom_site_label_2
_geom_bond_distance
_geom_bond_site_symmetry_2
_geom_bond_publ_flag
Zn1 N6 1.988(2) 2_645 ?
Zn1 N1 1.990(2) . ?
Zn1 N3 1.992(3) . ?
Zn1 N5 2.008(3) . ?
Zn2 N4 1.990(3) 4_576 ?
Zn2 N2 2.000(2) . ?
Zn2 N7 2.007(3) . ?
Zn2 N8 2.024(2) 2 ?
N1 C1 1.340(3) . ?
N1 C3 1.381(4) . ?
N2 C1 1.340(4) . ?
N2 C2 1.395(4) . ?
N3 C5 1.333(4) . ?
N3 C7 1.373(4) . ?
N4 C5 1.344(4) . ?
N4 C6 1.380(4) . ?
N4 Zn2 1.990(3) 4_575 ?
N5 C9 1.336(4) . ?
N5 C11 1.378(4) . ?
N6 C9 1.339(4) . ?
N6 C10 1.377(4) . ?
N6 Zn1 1.988(2) 2_655 ?
N7 C13 1.338(3) . ?
N7 C15 1.377(4) . ?
N8 C13 1.333(4) . ?
N8 C14 1.381(4) . ?
N8 Zn2 2.024(2) 2_545 ?
C1 C4 1.487(4) . ?
C2 C3 1.334(4) . ?
C2 H2 0.9300 . ?
C3 H3 0.9300 . ?
C4 H4A 0.9600 . ?
C4 H4B 0.9600 . ?
C4 H4C 0.9600 . ?
C5 C8 1.511(4) . ?
C6 C7 1.335(4) . ?
C6 H6 0.9300 . ?
C7 H7 0.9300 . ?
C8 H8A 0.9600 . ?
C8 H8B 0.9600 . ?
C8 H8C 0.9600 . ?
C9 C12 1.495(4) . ?
C10 C11 1.362(4) . ?
C10 H10 0.9300 . ?
C11 H11 0.9300 . ?
C12 H12A 0.9600 . ?
C12 H12B 0.9600 . ?
C12 H12C 0.9600 . ?
C13 C16 1.489(4) . ?
C14 C15 1.348(4) . ?
C14 H14 0.9300 . ?
C15 H15 0.9300 . ?
C16 H16A 0.9600 . ?
C16 H16B 0.9600 . ?
C16 H16C 0.9600 . ?

loop_
_geom_angle_atom_site_label_1
_geom_angle_atom_site_label_2
_geom_angle_atom_site_label_3
_geom_angle
_geom_angle_site_symmetry_1
_geom_angle_site_symmetry_3
_geom_angle_publ_flag
N6 Zn1 N1 116.39(11) 2_645 . ?
N6 Zn1 N3 115.61(11) 2_645 . ?
N1 Zn1 N3 101.93(11) . . ?
N6 Zn1 N5 101.05(11) 2_645 . ?
N1 Zn1 N5 110.84(11) . . ?
N3 Zn1 N5 111.34(11) . . ?
N4 Zn2 N2 104.49(11) 4_576 . ?
N4 Zn2 N7 111.03(10) 4_576 . ?
N2 Zn2 N7 120.65(11) . . ?
N4 Zn2 N8 115.11(11) 4_576 2 ?
N2 Zn2 N8 104.38(10) . 2 ?
N7 Zn2 N8 101.49(10) . 2 ?
C1 N1 C3 104.3(3) . . ?
C1 N1 Zn1 135.9(2) . . ?
C3 N1 Zn1 118.8(2) . . ?
C1 N2 C2 104.6(3) . . ?
C1 N2 Zn2 126.3(2) . . ?
C2 N2 Zn2 124.5(2) . . ?
C5 N3 C7 104.4(3) . . ?
C5 N3 Zn1 124.4(2) . . ?
C7 N3 Zn1 127.3(2) . . ?
C5 N4 C6 104.4(3) . . ?
C5 N4 Zn2 127.2(2) . 4_575 ?
C6 N4 Zn2 128.4(2) . 4_575 ?
C9 N5 C11 104.8(3) . . ?
C9 N5 Zn1 122.5(2) . . ?
C11 N5 Zn1 128.1(2) . . ?
C9 N6 C10 105.1(3) . . ?
C9 N6 Zn1 124.2(2) . 2_655 ?
C10 N6 Zn1 128.8(2) . 2_655 ?
C13 N7 C15 104.8(3) . . ?
C13 N7 Zn2 118.7(2) . . ?
C15 N7 Zn2 128.4(2) . . ?
C13 N8 C14 104.8(3) . . ?
C13 N8 Zn2 123.1(2) . 2_545 ?
C14 N8 Zn2 131.6(2) . 2_545 ?
N2 C1 N1 113.1(3) . . ?
N2 C1 C4 122.5(3) . . ?
N1 C1 C4 124.3(3) . . ?
C3 C2 N2 108.2(3) . . ?
C3 C2 H2 125.9 . . ?
N2 C2 H2 125.9 . . ?
C2 C3 N1 109.8(3) . . ?
C2 C3 H3 125.1 . . ?
N1 C3 H3 125.1 . . ?
C1 C4 H4A 109.5 . . ?
C1 C4 H4B 109.5 . . ?
H4A C4 H4B 109.5 . . ?
C1 C4 H4C 109.5 . . ?
H4A C4 H4C 109.5 . . ?
H4B C4 H4C 109.5 . . ?
N3 C5 N4 113.1(3) . . ?
N3 C5 C8 123.1(3) . . ?
N4 C5 C8 123.8(3) . . ?
C7 C6 N4 108.5(3) . . ?
C7 C6 H6 125.7 . . ?
N4 C6 H6 125.7 . . ?
C6 C7 N3 109.6(3) . . ?
C6 C7 H7 125.2 . . ?
N3 C7 H7 125.2 . . ?
C5 C8 H8A 109.5 . . ?
C5 C8 H8B 109.5 . . ?
H8A C8 H8B 109.5 . . ?
C5 C8 H8C 109.5 . . ?
H8A C8 H8C 109.5 . . ?
H8B C8 H8C 109.5 . . ?
N5 C9 N6 113.2(3) . . ?
N5 C9 C12 123.1(3) . . ?
N6 C9 C12 123.7(3) . . ?
C11 C10 N6 108.2(3) . . ?
C11 C10 H10 125.9 . . ?
N6 C10 H10 125.9 . . ?
C10 C11 N5 108.7(3) . . ?
C10 C11 H11 125.6 . . ?
N5 C11 H11 125.6 . . ?
C9 C12 H12A 109.5 . . ?
C9 C12 H12B 109.5 . . ?
H12A C12 H12B 109.5 . . ?
C9 C12 H12C 109.5 . . ?
H12A C12 H12C 109.5 . . ?
H12B C12 H12C 109.5 . . ?
N8 C13 N7 113.1(3) . . ?
N8 C13 C16 123.5(3) . . ?
N7 C13 C16 123.4(3) . . ?
C15 C14 N8 108.6(3) . . ?
C15 C14 H14 125.7 . . ?
N8 C14 H14 125.7 . . ?
C14 C15 N7 108.7(3) . . ?
C14 C15 H15 125.7 . . ?
N7 C15 H15 125.7 . . ?
C13 C16 H16A 109.5 . . ?
C13 C16 H16B 109.5 . . ?
H16A C16 H16B 109.5 . . ?
C13 C16 H16C 109.5 . . ?
H16A C16 H16C 109.5 . . ?
H16B C16 H16C 109.5 . . ?

loop_
_geom_torsion_atom_site_label_1
_geom_torsion_atom_site_label_2
_geom_torsion_atom_site_label_3
_geom_torsion_atom_site_label_4
_geom_torsion
_geom_torsion_site_symmetry_1
_geom_torsion_site_symmetry_2
_geom_torsion_site_symmetry_3
_geom_torsion_site_symmetry_4
_geom_torsion_publ_flag
N6 Zn1 N1 C1 -19.5(4) 2_645 . . . ?
N3 Zn1 N1 C1 107.3(3) . . . . ?
N5 Zn1 N1 C1 -134.2(3) . . . . ?
N6 Zn1 N1 C3 174.1(2) 2_645 . . . ?
N3 Zn1 N1 C3 -59.1(3) . . . . ?
N5 Zn1 N1 C3 59.4(3) . . . . ?
N4 Zn2 N2 C1 42.6(3) 4_576 . . . ?
N7 Zn2 N2 C1 -83.1(3) . . . . ?
N8 Zn2 N2 C1 163.9(3) 2 . . . ?
N4 Zn2 N2 C2 -109.4(3) 4_576 . . . ?
N7 Zn2 N2 C2 124.9(3) . . . . ?
N8 Zn2 N2 C2 11.9(3) 2 . . . ?
N6 Zn1 N3 C5 78.4(3) 2_645 . . . ?
N1 Zn1 N3 C5 -48.8(3) . . . . ?
N5 Zn1 N3 C5 -167.0(2) . . . . ?
N6 Zn1 N3 C7 -127.6(3) 2_645 . . . ?
N1 Zn1 N3 C7 105.2(3) . . . . ?
N5 Zn1 N3 C7 -13.0(3) . . . . ?
N6 Zn1 N5 C9 53.3(3) 2_645 . . . ?
N1 Zn1 N5 C9 177.3(2) . . . . ?
N3 Zn1 N5 C9 -70.0(3) . . . . ?
N6 Zn1 N5 C11 -99.1(3) 2_645 . . . ?
N1 Zn1 N5 C11 24.9(3) . . . . ?
N3 Zn1 N5 C11 137.6(3) . . . . ?
N4 Zn2 N7 C13 75.0(2) 4_576 . . . ?
N2 Zn2 N7 C13 -162.4(2) . . . . ?
N8 Zn2 N7 C13 -47.9(2) 2 . . . ?
N4 Zn2 N7 C15 -141.5(3) 4_576 . . . ?
N2 Zn2 N7 C15 -18.9(3) . . . . ?
N8 Zn2 N7 C15 95.7(3) 2 . . . ?
C2 N2 C1 N1 -0.3(4) . . . . ?
Zn2 N2 C1 N1 -156.7(2) . . . . ?
C2 N2 C1 C4 -179.0(3) . . . . ?
Zn2 N2 C1 C4 24.6(5) . . . . ?
C3 N1 C1 N2 -0.1(4) . . . . ?
Zn1 N1 C1 N2 -167.8(2) . . . . ?
C3 N1 C1 C4 178.6(3) . . . . ?
Zn1 N1 C1 C4 10.8(5) . . . . ?
C1 N2 C2 C3 0.5(4) . . . . ?
Zn2 N2 C2 C3 157.5(3) . . . . ?
N2 C2 C3 N1 -0.6(4) . . . . ?
C1 N1 C3 C2 0.4(4) . . . . ?
Zn1 N1 C3 C2 170.7(2) . . . . ?
C7 N3 C5 N4 -0.5(4) . . . . ?
Zn1 N3 C5 N4 158.4(2) . . . . ?
C7 N3 C5 C8 179.7(3) . . . . ?
Zn1 N3 C5 C8 -21.4(5) . . . . ?
C6 N4 C5 N3 0.6(4) . . . . ?
Zn2 N4 C5 N3 178.2(2) 4_575 . . . ?
C6 N4 C5 C8 -179.6(3) . . . . ?
Zn2 N4 C5 C8 -2.0(5) 4_575 . . . ?
C5 N4 C6 C7 -0.5(4) . . . . ?
Zn2 N4 C6 C7 -178.1(2) 4_575 . . . ?
N4 C6 C7 N3 0.3(4) . . . . ?
C5 N3 C7 C6 0.1(4) . . . . ?
Zn1 N3 C7 C6 -158.0(2) . . . . ?
C11 N5 C9 N6 0.5(4) . . . . ?
Zn1 N5 C9 N6 -157.3(2) . . . . ?
C11 N5 C9 C12 -177.9(3) . . . . ?
Zn1 N5 C9 C12 24.3(5) . . . . ?
C10 N6 C9 N5 -0.1(4) . . . . ?
Zn1 N6 C9 N5 -165.8(2) 2_655 . . . ?
C10 N6 C9 C12 178.3(3) . . . . ?
Zn1 N6 C9 C12 12.6(5) 2_655 . . . ?
C9 N6 C10 C11 -0.4(4) . . . . ?
Zn1 N6 C10 C11 164.3(2) 2_655 . . . ?
N6 C10 C11 N5 0.8(4) . . . . ?
C9 N5 C11 C10 -0.8(4) . . . . ?
Zn1 N5 C11 C10 155.4(2) . . . . ?
C14 N8 C13 N7 0.7(3) . . . . ?
Zn2 N8 C13 N7 -172.44(18) 2_545 . . . ?
C14 N8 C13 C16 -176.0(3) . . . . ?
Zn2 N8 C13 C16 10.9(4) 2_545 . . . ?
C15 N7 C13 N8 -0.5(3) . . . . ?
Zn2 N7 C13 N8 150.7(2) . . . . ?
C15 N7 C13 C16 176.2(3) . . . . ?
Zn2 N7 C13 C16 -32.6(4) . . . . ?
C13 N8 C14 C15 -0.6(4) . . . . ?
Zn2 N8 C14 C15 171.7(2) 2_545 . . . ?
N8 C14 C15 N7 0.3(4) . . . . ?
C13 N7 C15 C14 0.1(4) . . . . ?
Zn2 N7 C15 C14 -147.3(2) . . . . ?

_diffrn_measured_fraction_theta_max 0.999
_diffrn_reflns_theta_full        25.01
_diffrn_measured_fraction_theta_full 0.999
_refine_diff_density_max         0.402
_refine_diff_density_min         -0.283
_refine_diff_density_rms         0.070



