####################################################################### 
# 
# This file contains crystal structure data downloaded from the 
# Cambridge Structural Database (CSD) hosted by the Cambridge 
# Crystallographic Data Centre (CCDC).
# 
# Full information about CCDC data access policies and citation 
# guidelines are available at http://www.ccdc.cam.ac.uk/access/V1 
# 
# Audit and citation data items may have been added by the CCDC. 
# Please retain this information to preserve the provenance of 
# this file and to allow appropriate attribution of the data. 
# 
#######################################################################

data_compoud_1
_audit_block_doi                 10.5517/cc9mtwl
_database_code_depnum_ccdc_archive 'CCDC 287180'
loop_
_citation_id
_citation_doi
_citation_year
1 10.1002/anie.200503778 2006
_audit_update_record             
;
2005-10-21 deposited with the CCDC.	2023-06-17 downloaded from the CCDC.
;

_audit_creation_method           SHELXL-97
_chemical_name_systematic        
;
?
;
_chemical_name_common            ?
_chemical_melting_point          ?
_chemical_formula_moiety         ?
_chemical_formula_sum            'C8 H14 N4 O2 Zn'
_chemical_formula_weight         263.60

loop_
_atom_type_symbol
_atom_type_description
_atom_type_scat_dispersion_real
_atom_type_scat_dispersion_imag
_atom_type_scat_source
C C 0.0033 0.0016 'International Tables Vol C Tables 4.2.6.8 and 6.1.1.4'
H H 0.0000 0.0000 'International Tables Vol C Tables 4.2.6.8 and 6.1.1.4'
N N 0.0061 0.0033 'International Tables Vol C Tables 4.2.6.8 and 6.1.1.4'
Zn Zn 0.2839 1.4301 'International Tables Vol C Tables 4.2.6.8 and 6.1.1.4'
O O 0.0106 0.0060 'International Tables Vol C Tables 4.2.6.8 and 6.1.1.4'

_symmetry_cell_setting           Cubic
_symmetry_space_group_name_H-M   I-43m

loop_
_symmetry_equiv_pos_as_xyz
'x, y, z'
'x, -y, -z'
'-x, -y, z'
'-x, y, -z'
'y, -x, -z'
'-y, -x, z'
'-y, x, -z'
'y, x, z'
'y, z, x'
'-y, -z, x'
'y, -z, -x'
'-y, z, -x'
'z, -y, -x'
'z, y, x'
'-z, y, -x'
'-z, -y, x'
'z, x, y'
'-z, x, -y'
'-z, -x, y'
'z, -x, -y'
'x, z, y'
'x, -z, -y'
'-x, z, -y'
'-x, -z, y'
'x+1/2, y+1/2, z+1/2'
'x+1/2, -y+1/2, -z+1/2'
'-x+1/2, -y+1/2, z+1/2'
'-x+1/2, y+1/2, -z+1/2'
'y+1/2, -x+1/2, -z+1/2'
'-y+1/2, -x+1/2, z+1/2'
'-y+1/2, x+1/2, -z+1/2'
'y+1/2, x+1/2, z+1/2'
'y+1/2, z+1/2, x+1/2'
'-y+1/2, -z+1/2, x+1/2'
'y+1/2, -z+1/2, -x+1/2'
'-y+1/2, z+1/2, -x+1/2'
'z+1/2, -y+1/2, -x+1/2'
'z+1/2, y+1/2, x+1/2'
'-z+1/2, y+1/2, -x+1/2'
'-z+1/2, -y+1/2, x+1/2'
'z+1/2, x+1/2, y+1/2'
'-z+1/2, x+1/2, -y+1/2'
'-z+1/2, -x+1/2, y+1/2'
'z+1/2, -x+1/2, -y+1/2'
'x+1/2, z+1/2, y+1/2'
'x+1/2, -z+1/2, -y+1/2'
'-x+1/2, z+1/2, -y+1/2'
'-x+1/2, -z+1/2, y+1/2'

_cell_length_a                   17.012(1)
_cell_length_b                   17.012
_cell_length_c                   17.012
_cell_angle_alpha                90.00
_cell_angle_beta                 90.00
_cell_angle_gamma                90.00
_cell_volume                     4923.1(3)
_cell_formula_units_Z            12
_cell_measurement_temperature    123(2)
_cell_measurement_reflns_used    ?
_cell_measurement_theta_min      ?
_cell_measurement_theta_max      ?

_exptl_crystal_description       Polyhedral
_exptl_crystal_colour            Colorless
_exptl_crystal_size_max          0.25
_exptl_crystal_size_mid          0.18
_exptl_crystal_size_min          0.15
_exptl_crystal_density_meas      ?
_exptl_crystal_density_diffrn    1.067
_exptl_crystal_density_method    'not measured'
_exptl_crystal_F_000             1632
_exptl_absorpt_coefficient_mu    1.488
_exptl_absorpt_correction_type   Multi-scan
_exptl_absorpt_correction_T_min  0.7074
_exptl_absorpt_correction_T_max  0.8076
_exptl_absorpt_process_details   'SADABS (Bruker, 2002)'

_exptl_special_details           
;
?
;

_diffrn_ambient_temperature      123(2)
_diffrn_radiation_wavelength     0.71073
_diffrn_radiation_type           MoK\a
_diffrn_radiation_source         'fine-focus sealed tube'
_diffrn_radiation_monochromator  graphite
_diffrn_measurement_device_type  'Bruker Apex CCD'
_diffrn_measurement_method       '\w scan'
_diffrn_detector_area_resol_mean ?
_diffrn_standards_decay_%        ?
_diffrn_reflns_number            21576
_diffrn_reflns_av_R_equivalents  0.0671
_diffrn_reflns_av_sigmaI/netI    0.0235
_diffrn_reflns_limit_h_min       -22
_diffrn_reflns_limit_h_max       22
_diffrn_reflns_limit_k_min       -22
_diffrn_reflns_limit_k_max       22
_diffrn_reflns_limit_l_min       -21
_diffrn_reflns_limit_l_max       21
_diffrn_reflns_theta_min         1.69
_diffrn_reflns_theta_max         28.27
_reflns_number_total             1161
_reflns_number_gt                1133
_reflns_threshold_expression     >2sigma(I)

_computing_data_collection       'SMART, 1998.'
_computing_cell_refinement       'SAINT-PLUS, Ver. 6.0, 1997'
_computing_data_reduction        'SAINT-PLUS, Ver. 6.0, 1997'
_computing_structure_solution    'SHELXS-97 (Sheldrick, 1990)'
_computing_structure_refinement  'SHELXL-97 (Sheldrick, 1997)'
_computing_molecular_graphics    'XP, Ver. 6.10, Bruker AXS Inc., 2000.'
_computing_publication_material  'SHELXTL-Bruker AXS Inc., 1998.'

_refine_special_details          
;
Refinement of F^2^ against ALL reflections. The weighted R-factor wR and
goodness of fit S are based on F^2^, conventional R-factors R are based
on F, with F set to zero for negative F^2^. The threshold expression of
F^2^ > 2sigma(F^2^) is used only for calculating R-factors(gt) etc. and is
not relevant to the choice of reflections for refinement. R-factors based
on F^2^ are statistically about twice as large as those based on F, and R-
factors based on ALL data will be even larger.
;

_refine_ls_structure_factor_coef Fsqd
_refine_ls_matrix_type           full
_refine_ls_weighting_scheme      calc
_refine_ls_weighting_details     
'calc w=1/[\s^2^(Fo^2^)+(0.1100P)^2^+0.0000P] where P=(Fo^2^+2Fc^2^)/3'
_atom_sites_solution_primary     direct
_atom_sites_solution_secondary   difmap
_atom_sites_solution_hydrogens   geom
_refine_ls_hydrogen_treatment    mixed
_refine_ls_extinction_method     none
_refine_ls_extinction_coef       ?
_refine_ls_abs_structure_details 'Flack H D (1983), Acta Cryst. A39, 876-881'
_refine_ls_abs_structure_Flack   0.00(4)
_refine_ls_number_reflns         1161
_refine_ls_number_parameters     54
_refine_ls_number_restraints     0
_refine_ls_R_factor_all          0.0579
_refine_ls_R_factor_gt           0.0515
_refine_ls_wR_factor_ref         0.1398
_refine_ls_wR_factor_gt          0.1287
_refine_ls_goodness_of_fit_ref   1.094
_refine_ls_restrained_S_all      1.094
_refine_ls_shift/su_max          0.000
_refine_ls_shift/su_mean         0.000

loop_
_atom_site_label
_atom_site_type_symbol
_atom_site_fract_x
_atom_site_fract_y
_atom_site_fract_z
_atom_site_U_iso_or_equiv
_atom_site_adp_type
_atom_site_occupancy
_atom_site_symmetry_multiplicity
_atom_site_calc_flag
_atom_site_refinement_flags
_atom_site_disorder_assembly
_atom_site_disorder_group
Zn1 Zn 0.5000 0.0000 0.2500 0.0200(3) Uani 1 4 d S . .
N1 N 0.4102(2) 0.03153(19) 0.31737(19) 0.0269(6) Uani 1 1 d . . .
C1 C 0.3687(3) 0.1019(2) 0.3131(3) 0.0345(9) Uani 1 1 d . . .
H1 H 0.3783 0.1431 0.2766 0.041 Uiso 1 1 calc R . .
C2 C 0.37705(18) -0.0083(5) 0.37705(18) 0.0246(12) Uani 1 2 d S . .
C3 C 0.4048(3) -0.0858(4) 0.4048(3) 0.0361(12) Uani 1 2 d S . .
H3A H 0.4231 -0.0813 0.4593 0.054 Uiso 0.50 1 calc PR . .
H3B H 0.4483 -0.1037 0.3715 0.054 Uiso 0.50 1 calc PR . .
H3C H 0.3616 -0.1238 0.4021 0.054 Uiso 0.50 1 calc PR . .
O1W O 0.190(2) 0.1900(4) 0.189941(0) 0.17(2) Uiso 0.50 6 d SPR . .
H1WA H 0.1590 0.1590 0.1847 0.209 Uiso 0.17 2 d SPR . .
H1WB H 0.2105 0.2105 0.1491 0.209 Uiso 0.17 2 d SPR . .
O2W O 1.049(13) 0.293(7) 0.065(12) 0.14(5) Uiso 0.06 1 d P . .
H2WA H 1.0145 0.2826 0.0301 0.169 Uiso 0.06 1 d PR . .
H2WB H 1.0344 0.2707 0.1073 0.169 Uiso 0.06 1 d PR . .
O3W O 1.106(12) 0.106(12) 0.106(12) 0.23(12) Uiso 0.12 6 d SP . .
H3WA H 1.1183 0.0513 0.1080 0.271 Uiso 0.04 1 d PR . .
O4W O 0.7931(19) 0.2069(19) -0.001(6) 0.234(15) Uiso 0.50 2 d SP A 1
H4WA H 0.8149 0.2069 0.0438 0.281 Uiso 0.25 1 d PR A 1
H4WB H 0.7601 0.1698 -0.0027 0.281 Uiso 0.25 1 d PR A 1
O4W' O 0.829(11) 0.171(11) -0.036(14) 0.07(5) Uiso 0.03 2 d SP B 2
H4WC H 0.8542 0.2150 -0.0186 0.083 Uiso 0.02 1 d PR B 2
H4WD H 0.8568 0.1432 -0.0267 0.083 Uiso 0.03 2 d SPR B 2
O5W O 0.965(13) 0.091(9) 0.091(9) 0.07(5) Uiso 0.03 2 d SP C 1
H5WA H 0.9470 0.1363 0.0806 0.081 Uiso 0.03 1 d PR C 1
O6W O 1.0000 0.09(2) 0.0000 0.18(12) Uiso 0.06 4 d SP D 2
H6WA H 1.0351 0.0948 0.0351 0.215 Uiso 0.06 2 d SPR D 2
O7W O 0.957(7) 0.043(7) 0.043(7) 0.32(17) Uiso 0.22 6 d SP E 3
H7WA H 0.9631 0.0369 -0.0069 0.385 Uiso 0.07 2 d SPR E 3
H7WB H 0.9215 0.0785 0.0479 0.385 Uiso 0.07 2 d SPR E 3

loop_
_atom_site_aniso_label
_atom_site_aniso_U_11
_atom_site_aniso_U_22
_atom_site_aniso_U_33
_atom_site_aniso_U_23
_atom_site_aniso_U_13
_atom_site_aniso_U_12
Zn1 0.0206(3) 0.0206(3) 0.0188(3) 0.000 0.000 0.000
N1 0.0306(16) 0.0254(13) 0.0247(14) 0.0022(12) 0.0030(12) 0.0030(12)
C1 0.039(2) 0.0262(18) 0.039(2) 0.0065(16) 0.0052(17) 0.0042(15)
C2 0.0276(12) 0.018(3) 0.0276(12) 0.0007(16) -0.0017(15) 0.0007(16)
C3 0.0373(18) 0.034(3) 0.0373(18) 0.0077(17) 0.006(2) 0.0077(17)

_geom_special_details            
;
All esds (except the esd in the dihedral angle between two l.s. planes)
are estimated using the full covariance matrix. The cell esds are taken
into account individually in the estimation of esds in distances, angles
and torsion angles; correlations between esds in cell parameters are only
used when they are defined by crystal symmetry. An approximate (isotropic)
treatment of cell esds is used for estimating esds involving l.s. planes.
;

loop_
_geom_bond_atom_site_label_1
_geom_bond_atom_site_label_2
_geom_bond_distance
_geom_bond_site_symmetry_2
_geom_bond_publ_flag
Zn1 N1 1.984(3) 31_545 ?
Zn1 N1 1.984(3) 29 ?
Zn1 N1 1.984(3) 3_655 ?
Zn1 N1 1.984(3) . ?
N1 C2 1.344(5) . ?
N1 C1 1.391(5) . ?
C1 C1 1.339(9) 14 ?
C2 N1 1.344(5) 14 ?
C2 C3 1.478(9) . ?
O5W O5W 1.4(4) 12_656 ?
O5W O5W 1.4(4) 6_665 ?

loop_
_geom_angle_atom_site_label_1
_geom_angle_atom_site_label_2
_geom_angle_atom_site_label_3
_geom_angle
_geom_angle_site_symmetry_1
_geom_angle_site_symmetry_3
_geom_angle_publ_flag
N1 Zn1 N1 109.4(2) 31_545 29 ?
N1 Zn1 N1 109.49(10) 31_545 3_655 ?
N1 Zn1 N1 109.49(10) 29 3_655 ?
N1 Zn1 N1 109.49(10) 31_545 . ?
N1 Zn1 N1 109.49(10) 29 . ?
N1 Zn1 N1 109.4(2) 3_655 . ?
C2 N1 C1 105.1(4) . . ?
C2 N1 Zn1 128.5(3) . . ?
C1 N1 Zn1 126.4(3) . . ?
C1 C1 N1 108.7(2) 14 . ?
N1 C2 N1 112.3(6) . 14 ?
N1 C2 C3 123.9(3) . . ?
N1 C2 C3 123.9(3) 14 . ?
O5W O5W O5W 60.00(3) 12_656 6_665 ?

_diffrn_measured_fraction_theta_max 0.995
_diffrn_reflns_theta_full        28.27
_diffrn_measured_fraction_theta_full 0.995
_refine_diff_density_max         1.170
_refine_diff_density_min         -0.696
_refine_diff_density_rms         0.252
